0 297350 
1 296776 
2 293928 
3 292092 
4 291988 
5 291838 
6 291260 
7 290516 
8 289386 
9 288468 
10 286102 
11 284038 
12 282172 
13 278890 
14 274254 
15 270760 
16 269970 
17 268726 
18 266700 
19 266336 
20 266184 
21 261732 
22 260894 
23 260566 
24 260554 
25 260482 
26 254564 
27 254330 
28 252910 
29 252878 
30 250402 
31 249840 
32 249828 
33 248258 
34 245730 
35 243818 
36 241122 
37 241122 

